Welcome to the CBC MILP Solver 
Version: 2.10.3 
Build Date: Dec 15 2019 

command line - /usr/local/lib/python3.9/site-packages/pulp/apis/../solverdir/cbc/osx/64/cbc /var/folders/t4/vnxj6kkj2n97knry5lnrscx00000gn/T/bbd39e79eb34469eb8e6b86f4c197a3b-pulp.mps sec 300 timeMode elapsed branch printingOptions all solution /var/folders/t4/vnxj6kkj2n97knry5lnrscx00000gn/T/bbd39e79eb34469eb8e6b86f4c197a3b-pulp.sol (default strategy 1)
At line 2 NAME          MODEL
At line 3 ROWS
At line 43 COLUMNS
At line 219 RHS
At line 258 BOUNDS
At line 293 ENDATA
Problem MODEL has 38 rows, 33 columns and 108 elements
Coin0008I MODEL read with 0 errors
seconds was changed from 1e+100 to 300
Option for timeMode changed from cpu to elapsed
Continuous objective value is 6 - 0.00 seconds
Cgl0003I 0 fixed, 1 tightened bounds, 0 strengthened rows, 0 substitutions
Cgl0004I processed model has 32 rows, 31 columns (31 integer (22 of which binary)) and 96 elements
Cutoff increment increased from 1e-05 to 0.9999
Cbc0038I Initial state - 22 integers unsatisfied sum - 6.75
Cbc0038I Pass   1: suminf.    3.50000 (10) obj. 10 iterations 10
Cbc0038I Pass   2: suminf.    2.62500 (8) obj. 10 iterations 3
Cbc0038I Pass   3: suminf.    0.75000 (2) obj. 13 iterations 10
Cbc0038I Pass   4: suminf.    0.75000 (2) obj. 13 iterations 1
Cbc0038I Pass   5: suminf.    0.00000 (0) obj. 16 iterations 4
Cbc0038I Solution found of 16
Cbc0038I Cleaned solution of 16
Cbc0038I Before mini branch and bound, 3 integers at bound fixed and 0 continuous
Cbc0038I Full problem 32 rows 31 columns, reduced to 5 rows 5 columns
Cbc0038I Mini branch and bound improved solution from 16 to 8 (0.01 seconds)
Cbc0038I After 0.01 seconds - Feasibility pump exiting with objective of 8 - took 0.00 seconds
Cbc0012I Integer solution of 8 found by feasibility pump after 0 iterations and 0 nodes (0.01 seconds)
Cbc0001I Search completed - best objective 8, took 0 iterations and 0 nodes (0.01 seconds)
Cbc0035I Maximum depth 0, 0 variables fixed on reduced cost
Cuts at root node changed objective from 8 to 8
Probing was tried 0 times and created 0 cuts of which 0 were active after adding rounds of cuts (0.000 seconds)
Gomory was tried 0 times and created 0 cuts of which 0 were active after adding rounds of cuts (0.000 seconds)
Knapsack was tried 0 times and created 0 cuts of which 0 were active after adding rounds of cuts (0.000 seconds)
Clique was tried 0 times and created 0 cuts of which 0 were active after adding rounds of cuts (0.000 seconds)
MixedIntegerRounding2 was tried 0 times and created 0 cuts of which 0 were active after adding rounds of cuts (0.000 seconds)
FlowCover was tried 0 times and created 0 cuts of which 0 were active after adding rounds of cuts (0.000 seconds)
TwoMirCuts was tried 0 times and created 0 cuts of which 0 were active after adding rounds of cuts (0.000 seconds)
ZeroHalf was tried 0 times and created 0 cuts of which 0 were active after adding rounds of cuts (0.000 seconds)

Result - Optimal solution found

Objective value:                8.00000000
Enumerated nodes:               0
Total iterations:               0
Time (CPU seconds):             0.01
Time (Wallclock seconds):       0.01

Option for printingOptions changed from normal to all
Total time (CPU seconds):       0.01   (Wallclock seconds):       0.02

